
Gurobi 11.0.1 (win64) logging started Thu Mar 14 11:25:57 2024

Set parameter LogFile to value "res/logfile/rocII-5-11log.txt"
Gurobi Optimizer version 11.0.1 build v11.0.1rc0 (win64 - Windows 11.0 (22621.2))

CPU model: AMD Ryzen Threadripper PRO 5975WX 32-Cores, instruction set [SSE2|AVX|AVX2]
Thread count: 32 physical cores, 64 logical processors, using up to 10 threads

Optimize a model with 31045 rows, 11523 columns and 520831 nonzeros
Model fingerprint: 0x06d95fd3
Variable types: 182 continuous, 11341 integer (11341 binary)
Coefficient statistics:
  Matrix range     [4e-01, 1e+01]
  Objective range  [5e-02, 1e+01]
  Bounds range     [3e-02, 1e+00]
  RHS range        [7e-02, 1e+01]
Presolve removed 24929 rows and 8902 columns
Presolve time: 1.23s
Presolved: 6116 rows, 2621 columns, 51364 nonzeros
Crushed 1070 out of 3664 user cuts to presolved model
Variable types: 126 continuous, 2495 integer (2495 binary)

Root relaxation: objective -1.187570e+01, 684 iterations, 0.02 seconds (0.03 work units)

    Nodes    |    Current Node    |     Objective Bounds      |     Work
 Expl Unexpl |  Obj  Depth IntInf | Incumbent    BestBd   Gap | It/Node Time

     0     0  -11.87570    0   85          -  -11.87570      -     -    1s
     0     0  -11.87570    0  104          -  -11.87570      -     -    1s
     0     0  -11.87570    0  124          -  -11.87570      -     -    1s
     0     0  -11.87570    0  109          -  -11.87570      -     -    1s
     0     0  -11.85526    0  154          -  -11.85526      -     -    2s
     0     0  -11.85372    0  156          -  -11.85372      -     -    2s
     0     0  -11.84920    0  187          -  -11.84920      -     -    2s
     0     0  -11.84920    0  110          -  -11.84920      -     -    3s
H    0     0                      -0.2850516  -11.84920  4057%     -    3s
     0     0  -11.83933    0  284   -0.28505  -11.83933  4053%     -    3s
     0     0  -11.83933    0  251   -0.28505  -11.83933  4053%     -    3s
     0     0  -11.83871    0  247   -0.28505  -11.83871  4053%     -    3s
     0     0  -11.82994    0  332   -0.28505  -11.82994  4050%     -    3s
     0     0  -11.82979    0  327   -0.28505  -11.82979  4050%     -    3s
     0     0  -11.82979    0  327   -0.28505  -11.82979  4050%     -    3s
     0     0  -11.82979    0  318   -0.28505  -11.82979  4050%     -    3s
     0     0  -11.82900    0  319   -0.28505  -11.82900  4050%     -    3s
     0     0  -11.82900    0  318   -0.28505  -11.82900  4050%     -    3s
     0     0  -11.82542    0  309   -0.28505  -11.82542  4049%     -    4s
     0     0  -11.82542    0  299   -0.28505  -11.82542  4049%     -    4s
H    0     0                      -3.4229728  -11.82540   245%     -    4s
     0     0  -11.82481    0  277   -3.42297  -11.82481   245%     -    4s
     0     0  -11.82216    0  334   -3.42297  -11.82216   245%     -    4s
     0     0  -11.82201    0  303   -3.42297  -11.82201   245%     -    4s
     0     0  -11.82138    0  322   -3.42297  -11.82138   245%     -    4s
     0     0  -11.82138    0  321   -3.42297  -11.82138   245%     -    4s
     0     0  -11.82138    0  319   -3.42297  -11.82138   245%     -    4s
     0     0  -11.82033    0  303   -3.42297  -11.82033   245%     -    4s
     0     0  -11.82028    0  298   -3.42297  -11.82028   245%     -    4s
     0     0  -11.82009    0  296   -3.42297  -11.82009   245%     -    4s
     0     0  -11.82009    0  296   -3.42297  -11.82009   245%     -    4s
     0     0  -11.81888    0  323   -3.42297  -11.81888   245%     -    5s
     0     0  -11.81864    0  336   -3.42297  -11.81864   245%     -    5s
     0     0  -11.81836    0  318   -3.42297  -11.81836   245%     -    5s
     0     0  -11.81836    0  316   -3.42297  -11.81836   245%     -    5s
     0     0  -11.81828    0  322   -3.42297  -11.81828   245%     -    5s
     0     0  -11.81779    0  326   -3.42297  -11.81779   245%     -    5s
     0     0  -11.81779    0  317   -3.42297  -11.81779   245%     -    5s
     0     0  -11.81776    0  310   -3.42297  -11.81776   245%     -    5s
     0     0  -11.81771    0  333   -3.42297  -11.81771   245%     -    5s
     0     0  -11.81771    0  332   -3.42297  -11.81771   245%     -    5s
     0     0  -11.81771    0  334   -3.42297  -11.81771   245%     -    5s
     0     0  -11.81771    0  332   -3.42297  -11.81771   245%     -    5s
     0     0  -11.81771    0  334   -3.42297  -11.81771   245%     -    5s
     0     0  -11.81771    0  331   -3.42297  -11.81771   245%     -    5s
     0     0  -11.81753    0  319   -3.42297  -11.81753   245%     -    5s
     0     0  -11.81753    0  315   -3.42297  -11.81753   245%     -    5s
     0     0  -11.81739    0  317   -3.42297  -11.81739   245%     -    5s
     0     0  -11.81739    0  326   -3.42297  -11.81739   245%     -    5s
     0     0  -11.81739    0  298   -3.42297  -11.81739   245%     -    6s
     0     0  -11.81736    0  309   -3.42297  -11.81736   245%     -    6s
     0     0  -11.81736    0  301   -3.42297  -11.81736   245%     -    6s
     0     0  -11.81729    0  295   -3.42297  -11.81729   245%     -    6s
     0     0  -11.81729    0  295   -3.42297  -11.81729   245%     -    6s
     0     0  -11.81727    0  308   -3.42297  -11.81727   245%     -    6s
     0     0  -11.81722    0  334   -3.42297  -11.81722   245%     -    6s
     0     0  -11.81720    0  322   -3.42297  -11.81720   245%     -    6s
     0     0  -11.81713    0  299   -3.42297  -11.81713   245%     -    6s
     0     0  -11.81713    0  298   -3.42297  -11.81713   245%     -    6s
     0     0  -11.81713    0  314   -3.42297  -11.81713   245%     -    6s
     0     0  -11.81711    0  329   -3.42297  -11.81711   245%     -    6s
     0     0  -11.81711    0  329   -3.42297  -11.81711   245%     -    6s
     0     0  -11.81711    0  295   -3.42297  -11.81711   245%     -    7s
     0     0  -11.81711    0  300   -3.42297  -11.81711   245%     -    7s
     0     0  -11.81711    0  295   -3.42297  -11.81711   245%     -    7s
     0     0  -11.81709    0  324   -3.42297  -11.81709   245%     -    7s
     0     0  -11.81709    0  167   -3.42297  -11.81709   245%     -    7s
     0     0  -11.81709    0   98   -3.42297  -11.81709   245%     -    8s
     0     0  -11.81709    0  100   -3.42297  -11.81709   245%     -    8s
     0     0  -11.81709    0  173   -3.42297  -11.81709   245%     -    8s
     0     0  -11.81709    0  167   -3.42297  -11.81709   245%     -    8s
     0     0  -11.81709    0  167   -3.42297  -11.81709   245%     -    8s
     0     0  -11.81709    0  168   -3.42297  -11.81709   245%     -    8s
     0     0  -11.81638    0  292   -3.42297  -11.81638   245%     -    9s
     0     0  -11.81638    0  287   -3.42297  -11.81638   245%     -    9s
     0     0  -11.81638    0  291   -3.42297  -11.81638   245%     -    9s
     0     0  -11.81638    0  286   -3.42297  -11.81638   245%     -    9s
     0     0  -11.81277    0  290   -3.42297  -11.81277   245%     -    9s
     0     0  -11.81276    0  288   -3.42297  -11.81276   245%     -    9s
     0     0  -11.81244    0  295   -3.42297  -11.81244   245%     -    9s
     0     0  -11.81244    0  291   -3.42297  -11.81244   245%     -    9s
     0     0  -11.81103    0  214   -3.42297  -11.81103   245%     -    9s
     0     0  -11.81103    0  249   -3.42297  -11.81103   245%     -    9s
     0     0  -11.81103    0  244   -3.42297  -11.81103   245%     -    9s
     0     0  -11.81103    0  261   -3.42297  -11.81103   245%     -    9s
     0     0  -11.81085    0  265   -3.42297  -11.81085   245%     -    9s
     0     0  -11.81003    0  248   -3.42297  -11.81003   245%     -   10s
H    0     0                      -3.6036281  -11.81002   228%     -   10s
     0     0  -11.80941    0  224   -3.60363  -11.80941   228%     -   10s
     0     0  -11.80863    0  264   -3.60363  -11.80863   228%     -   10s
     0     0  -11.80863    0  261   -3.60363  -11.80863   228%     -   10s
H    0     0                      -3.6209474  -11.80820   226%     -   10s
     0     0  -11.80820    0  234   -3.62095  -11.80820   226%     -   10s
     0     0  -11.80801    0  228   -3.62095  -11.80801   226%     -   10s
     0     0  -11.80798    0  226   -3.62095  -11.80798   226%     -   10s
     0     0  -11.80775    0  269   -3.62095  -11.80775   226%     -   10s
     0     0  -11.80772    0  248   -3.62095  -11.80772   226%     -   10s
     0     0  -11.80772    0  246   -3.62095  -11.80772   226%     -   10s
     0     0  -11.80759    0  283   -3.62095  -11.80759   226%     -   10s
     0     0  -11.80752    0  269   -3.62095  -11.80752   226%     -   11s
     0     0  -11.80752    0  295   -3.62095  -11.80752   226%     -   11s
     0     0  -11.80749    0  275   -3.62095  -11.80749   226%     -   11s
     0     0  -11.80719    0  289   -3.62095  -11.80719   226%     -   11s
     0     0  -11.80708    0  298   -3.62095  -11.80708   226%     -   11s
     0     0  -11.80708    0  298   -3.62095  -11.80708   226%     -   11s
     0     0  -11.80708    0  298   -3.62095  -11.80708   226%     -   11s
     0     0  -11.80706    0  262   -3.62095  -11.80706   226%     -   11s
     0     0  -11.80700    0  262   -3.62095  -11.80700   226%     -   11s
     0     0  -11.80656    0  271   -3.62095  -11.80656   226%     -   11s
     0     0  -11.80656    0  248   -3.62095  -11.80656   226%     -   11s
     0     0  -11.80589    0  237   -3.62095  -11.80589   226%     -   12s
     0     0  -11.80552    0  216   -3.62095  -11.80552   226%     -   12s
     0     0  -11.80545    0  255   -3.62095  -11.80545   226%     -   12s
     0     0  -11.80525    0  248   -3.62095  -11.80525   226%     -   12s
     0     0  -11.80502    0  282   -3.62095  -11.80502   226%     -   12s
     0     0  -11.80461    0  294   -3.62095  -11.80461   226%     -   12s
     0     0  -11.80455    0  242   -3.62095  -11.80455   226%     -   12s
     0     0  -11.80446    0  271   -3.62095  -11.80446   226%     -   12s
     0     0  -11.80435    0  279   -3.62095  -11.80435   226%     -   12s
     0     0  -11.80435    0  277   -3.62095  -11.80435   226%     -   12s
     0     0  -11.80435    0  285   -3.62095  -11.80435   226%     -   12s
     0     0  -11.80435    0  298   -3.62095  -11.80435   226%     -   13s
     0     0  -11.80433    0  291   -3.62095  -11.80433   226%     -   13s
     0     0  -11.80432    0  281   -3.62095  -11.80432   226%     -   13s
     0     0  -11.80422    0  259   -3.62095  -11.80422   226%     -   13s
     0     0  -11.80419    0  298   -3.62095  -11.80419   226%     -   13s
     0     0  -11.80416    0  277   -3.62095  -11.80416   226%     -   13s
     0     0  -11.80415    0  276   -3.62095  -11.80415   226%     -   13s
     0     0  -11.80411    0  248   -3.62095  -11.80411   226%     -   13s
     0     0  -11.80407    0  211   -3.62095  -11.80407   226%     -   13s
     0     2  -11.80407    0  211   -3.62095  -11.80407   226%     -   14s
H   39    46                      -3.6209481  -11.80083   226%   329   14s
    83    90 infeasible    7        -3.62095  -11.79950   226%   253   16s
H   87    90                      -4.6230312  -11.79950   155%   244   16s
H 1066   517                      -4.6237845  -11.79698   155%  83.6   18s
* 1429   646              29      -4.6379587  -11.79495   154%  78.6   19s
* 1431   646              30      -4.6457836  -11.79495   154%  78.5   19s
H 1906   789                      -4.6518382  -11.79487   154%  71.1   19s
  1936   832 infeasible   33        -4.65184  -11.79479   154%  71.2   20s
H 1959   832                      -4.6641144  -11.79479   153%  70.8   20s
H 2154   885                      -4.6644780  -11.79479   153%  69.7   20s
  2612  1098   -9.75497   20  187   -4.66448  -11.79404   153%  65.1   25s
  2626  1107  -11.79282    5  285   -4.66448  -11.79404   153%  64.7   30s
  2646  1130  -11.78874   12  199   -4.66448  -11.79404   153%  70.4   35s
H 2726  1113                      -5.6444742  -11.79404   109%  75.4   37s
  2809  1130  -11.76278   20  123   -5.64447  -11.79404   109%  77.5   40s
H 2956  1121                      -5.6464776  -11.79404   109%  77.3   43s
  3008  1087  -11.77191   17  175   -5.64648  -11.79404   109%  79.6   45s
* 3283  1087              34      -5.6620489  -11.79404   108%  79.3   46s
H 3371  1067                      -5.6704670  -11.79404   108%  78.5   50s
  4387  1146 infeasible   31        -5.67047  -11.79299   108%  80.3   56s
  5579  1262 infeasible   18        -5.67047  -11.78602   108%  74.8   60s
  7225  1820 infeasible   24        -5.67047  -11.77985   108%  68.9   65s
H 7229  1820                      -5.6745566  -11.77985   108%  68.9   65s
H 7230  1750                      -6.6615588  -11.77985  76.8%  69.1   65s
  8467  2056 infeasible   23        -6.66156  -11.77629  76.8%  67.8   72s
H 8507  2056                      -6.6624659  -11.77591  76.8%  68.8   72s
  8544  2046 infeasible   22        -6.66247  -11.77591  76.8%  69.2   75s
H 8887  2091                      -6.6624660  -11.77486  76.7%  70.9   79s
  8892  2335   -8.76689   22  131   -6.66247  -11.77405  76.7%  70.9   80s
 12101  3159 infeasible   26        -6.66247  -11.76517  76.6%  63.7   89s
H12130  3159                      -6.6624660  -11.76505  76.6%  64.2   89s
 12198  3109  -11.75507   23  142   -6.66247  -11.76471  76.6%  65.5   90s
 12538  3386  -11.62623   22  138   -6.66247  -11.76120  76.5%  67.3   95s
 14704  3519   -9.75840   20  127   -6.66247  -11.74648  76.3%  64.9  100s
 16307  3479 infeasible   36        -6.66247  -10.75983  61.5%  63.9  108s
 16744  4228   -7.72476   27  112   -6.66247  -10.74929  61.3%  64.9  111s
H19611  4199                      -6.6683422   -9.76659  46.5%  59.7  113s
 20546  4306 infeasible   37        -6.66834   -9.74541  46.1%  58.5  115s
 22601  4802   -8.77161   25  167   -6.66834   -8.77909  31.7%  58.1  120s
 25396  5114   -7.75052   20   97   -6.66834   -8.76549  31.4%  55.7  125s
 28559  5408 infeasible   33        -6.66834   -8.75811  31.3%  52.9  130s
 32134  5344 infeasible   31        -6.66834   -8.75126  31.2%  50.0  135s
H32169  5344                      -6.6688189   -8.75126  31.2%  50.1  135s
 34272  5318   -8.74333   25   82   -6.66882   -8.74801  31.2%  48.5  202s
H34277  5318                      -6.6707847   -8.74801  31.1%  48.5  202s
 34524  4812 infeasible   27        -6.67078   -8.74747  31.1%  48.7  208s
 35380  5643   -8.72436   25   76   -6.67078   -8.74104  31.0%  49.7  225s
*42875  5643              44      -6.6728588   -8.74037  31.0%  44.0  226s
 46500  5834   -8.73380   28   79   -6.67286   -8.73380  30.9%  41.8  230s
 51828  5277 infeasible   34        -6.67286   -8.72687  30.8%  39.5  235s
H52111  5066                      -6.6741860   -8.72572  30.7%  39.5  237s
 53463  4007 infeasible   28        -6.67419   -8.69061  30.2%  39.5  240s
 55295  3639 infeasible   32        -6.67419   -7.75311  16.2%  40.1  248s
 55754  3089   -7.72194   31   80   -6.67419   -7.74007  16.0%  40.2  258s
 63386  2534 infeasible   30        -6.67419   -7.70653  15.5%  36.9  260s
 64045  2556   -6.72106   32   72   -6.67419   -6.76142  1.31%  37.4  266s
 68229  1768 infeasible   55        -6.67419   -6.72743  0.80%  36.6  270s
*68960  1439              49      -6.6742572   -6.72302  0.73%  36.6  270s
*68961  1437              49      -6.6752305   -6.72302  0.72%  36.6  270s
*70046    36              48      -6.6755047   -6.70876  0.50%  36.3  272s

Cutting planes:
  Learned: 4
  Gomory: 8
  Cover: 769
  Implied bound: 212
  Projected implied bound: 5
  Clique: 122
  MIR: 344
  StrongCG: 6
  Flow cover: 223
  GUB cover: 7
  Inf proof: 29
  Zero half: 66
  Mod-K: 1
  RLT: 31
  Relax-and-lift: 269

Explored 70669 nodes (2583100 simplex iterations) in 272.95 seconds (396.25 work units)
Thread count was 10 (of 64 available processors)

Solution count 10: -6.6755 -6.67523 -6.67426 ... -6.66156
No other solutions better than -6.6755

Optimal solution found (tolerance 1.00e-04)
Best objective -6.675504731538e+00, best bound -6.675504731538e+00, gap 0.0000%

User-callback calls 158998, time in user-callback 0.04 sec
